rehearsal = [[0,1,1,1,1,0,1,1,1,0,1,1,1,1,0], [0,1,0,0,1,1,1,1,0,1,1,0,1,0,1], [1,0,0,1,1,1,1,1,1,1,1,1,1,1,1], [1,1,1,0,1,0,1,1,1,1,1,0,0,1,1], [1,1,0,1,1,1,1,1,0,1,1,0,0,1,1], [1,1,1,0,1,1,1,1,1,1,1,1,1,0,1], [1,1,0,1,0,1,1,1,1,1,1,1,1,1,1], [1,0,0,1,1,0,1,0,1,1,1,1,1,1,0], [1,1,1,1,0,1,0,1,1,1,1,1,1,1,1], [1,0,1,1,1,1,1,0,1,1,1,1,1,1,1], [1,1,1,1,1,1,1,1,1,1,1,1,1,0,1], [0,1,1,1,1,0,1,1,1,0,1,1,1,1,1], [1,1,1,0,1,0,1,1,1,1,0,0,1,1,1], [1,0,1,1,1,1,1,0,1,1,1,1,0,1,1], [1,1,0,1,1,1,1,1,1,0,1,0,1,1,0], [0,0,1,0,1,0,0,1,1,0,1,1,1,1,1], [1,1,1,1,1,0,0,1,1,1,1,1,1,0,0], [1,1,1,1,1,1,0,0,1,1,1,1,0,1,1], [0,1,1,1,0,1,0,1,1,1,0,1,0,1,1], [1,1,1,1,1,0,1,1,1,1,1,0,1,1,1], [1,1,1,0,1,1,1,0,1,1,1,1,1,0,1], [1,0,1,1,1,0,0,1,1,1,1,1,1,1,0], [1,1,1,0,1,1,1,1,1,1,1,1,1,1,1], [1,1,1,1,1,1,0,1,1,0,1,0,1,1,0], [1,0,1,1,1,1,1,0,1,1,1,1,0,1,1], [1,1,1,1,1,1,1,0,1,1,0,1,1,1,1], [1,1,1,1,0,0,1,1,1,1,0,1,1,0,1], [1,1,0,1,1,1,1,1,1,1,1,1,1,1,1], [1,1,1,1,0,0,1,1,0,1,1,1,1,1,1], [1,1,0,0,0,1,1,0,1,1,1,1,0,0,1], [1,1,0,1,0,1,0,1,1,1,0,1,1,0,1], [1,1,0,1,0,1,1,1,1,1,1,0,1,1,1], [0,1,1,1,1,0,0,1,0,1,1,1,1,1,1], [1,0,1,1,1,1,1,1,1,1,1,1,1,1,1], [1,1,1,1,1,1,1,0,1,1,1,1,1,0,0], [1,1,1,1,0,1,0,1,1,1,1,0,1,1,1], [0,1,0,1,1,1,1,1,1,1,1,1,1,0,1], [1,1,0,0,1,1,1,1,0,1,1,1,1,1,1], [0,1,0,1,0,1,1,1,0,0,0,1,1,1,1], [1,1,1,1,1,1,0,1,1,1,0,0,1,1,1], [1,1,0,1,1,1,1,1,0,1,1,1,1,1,1], [1,0,1,1,1,1,1,1,1,1,1,1,0,0,1], [0,1,1,0,1,1,1,1,1,0,1,1,1,1,1], [1,1,1,1,0,1,0,1,1,0,1,1,1,0,1], [1,1,0,1,0,1,1,0,1,1,1,0,1,1,0], [0,1,0,0,1,1,1,1,1,0,1,1,1,1,1], [0,1,1,1,1,1,1,1,0,1,1,1,1,1,1], [0,1,0,1,1,1,0,1,0,1,1,1,1,1,1], [0,1,1,1,1,1,0,1,1,1,0,1,1,0,1], [1,1,1,1,1,1,1,1,1,1,1,1,0,1,1]];
permutations = [3,9,1,10,5,11,8,14,12,4,13,15,2,7,6];